p edge 74 421
v 1 250
v 2 80
v 3 150
v 4 80
v 5 100
v 6 340
v 7 350
v 8 100
v 9 180
v 10 150
v 11 70
v 12 180
v 13 80
v 14 250
v 15 330
v 16 100
v 17 30
v 18 30
v 19 80
v 20 200
v 21 80
v 22 60
v 23 160
v 24 120
v 25 150
v 26 90
v 27 80
v 28 20
v 29 40
v 30 40
v 31 60
v 32 80
v 33 160
v 34 240
v 35 90
v 36 270
v 37 180
v 38 230
v 39 130
v 40 160
v 41 50
v 42 40
v 43 10
v 44 200
v 45 700
v 46 50
v 47 150
v 48 30
v 49 60
v 50 150
v 51 180
v 52 280
v 53 160
v 54 60
v 55 40
v 56 50
v 57 100
v 58 30
v 59 80
v 60 50
v 61 150
v 62 250
v 63 160
v 64 120
v 65 30
v 66 150
v 67 40
v 68 80
v 69 80
v 70 80
v 71 40
v 72 200
v 73 300
v 74 310
e 1 2
e 1 3
e 1 4
e 1 6
e 1 24
e 1 32
e 1 45
e 2 3
e 2 4
e 2 34
e 2 47
e 2 57
e 2 67
e 3 4
e 3 7
e 3 14
e 3 18
e 3 27
e 3 50
e 3 58
e 4 9
e 4 20
e 4 30
e 4 36
e 4 42
e 4 52
e 4 60
e 4 70
e 4 72
e 5 6
e 5 7
e 5 8
e 5 9
e 5 10
e 5 12
e 5 23
e 5 38
e 5 44
e 5 56
e 5 64
e 6 7
e 6 8
e 6 9
e 6 10
e 6 24
e 6 32
e 6 45
e 7 8
e 7 9
e 7 10
e 7 14
e 7 18
e 7 27
e 7 50
e 7 58
e 8 9
e 8 10
e 8 15
e 8 29
e 8 41
e 8 49
e 8 51
e 8 69
e 9 10
e 9 20
e 9 30
e 9 36
e 9 42
e 9 52
e 9 60
e 9 70
e 9 72
e 10 43
e 10 54
e 10 62
e 10 74
e 11 12
e 11 13
e 11 14
e 11 15
e 11 16
e 11 22
e 11 37
e 11 55
e 11 63
e 12 13
e 12 14
e 12 15
e 12 23
e 12 38
e 12 44
e 12 56
e 12 64
e 13 14
e 13 15
e 13 17
e 13 26
e 13 39
e 13 46
e 13 66
e 14 15
e 14 18
e 14 27
e 14 50
e 14 58
e 15 29
e 15 41
e 15 49
e 15 51
e 15 69
e 16 17
e 16 18
e 16 19
e 16 20
e 16 21
e 16 22
e 16 37
e 16 55
e 16 63
e 17 18
e 17 19
e 17 20
e 17 21
e 17 26
e 17 39
e 17 46
e 17 66
e 18 19
e 18 20
e 18 21
e 18 27
e 18 50
e 18 58
e 19 20
e 19 21
e 19 28
e 19 35
e 19 40
e 19 48
e 19 59
e 19 68
e 20 21
e 20 30
e 20 36
e 20 42
e 20 52
e 20 60
e 20 70
e 20 72
e 21 31
e 21 53
e 21 61
e 21 71
e 21 73
e 22 23
e 22 24
e 22 25
e 22 26
e 22 27
e 22 28
e 22 29
e 22 30
e 22 31
e 22 37
e 22 55
e 22 63
e 23 24
e 23 25
e 23 26
e 23 27
e 23 28
e 23 29
e 23 30
e 23 31
e 23 38
e 23 44
e 23 56
e 23 64
e 24 25
e 24 26
e 24 27
e 24 28
e 24 29
e 24 30
e 24 31
e 24 32
e 24 45
e 25 26
e 25 27
e 25 28
e 25 29
e 25 30
e 25 31
e 25 33
e 25 65
e 26 27
e 26 28
e 26 29
e 26 30
e 26 31
e 26 39
e 26 46
e 26 66
e 27 28
e 27 29
e 27 30
e 27 31
e 27 50
e 27 58
e 28 29
e 28 30
e 28 31
e 28 35
e 28 40
e 28 48
e 28 59
e 28 68
e 29 30
e 29 31
e 29 41
e 29 49
e 29 51
e 29 69
e 30 31
e 30 36
e 30 42
e 30 52
e 30 60
e 30 70
e 30 72
e 31 53
e 31 61
e 31 71
e 31 73
e 32 33
e 32 34
e 32 35
e 32 36
e 32 45
e 33 34
e 33 35
e 33 36
e 33 65
e 34 35
e 34 36
e 34 47
e 34 57
e 34 67
e 35 36
e 35 40
e 35 48
e 35 59
e 35 68
e 36 42
e 36 52
e 36 60
e 36 70
e 36 72
e 37 38
e 37 39
e 37 40
e 37 41
e 37 42
e 37 43
e 37 55
e 37 63
e 38 39
e 38 40
e 38 41
e 38 42
e 38 43
e 38 44
e 38 56
e 38 64
e 39 40
e 39 41
e 39 42
e 39 43
e 39 46
e 39 66
e 40 41
e 40 42
e 40 43
e 40 48
e 40 59
e 40 68
e 41 42
e 41 43
e 41 49
e 41 51
e 41 69
e 42 43
e 42 52
e 42 60
e 42 70
e 42 72
e 43 54
e 43 62
e 43 74
e 44 45
e 44 46
e 44 47
e 44 48
e 44 49
e 44 56
e 44 64
e 45 46
e 45 47
e 45 48
e 45 49
e 46 47
e 46 48
e 46 49
e 46 66
e 47 48
e 47 49
e 47 57
e 47 67
e 48 49
e 48 59
e 48 68
e 49 51
e 49 69
e 50 51
e 50 52
e 50 53
e 50 54
e 50 58
e 51 52
e 51 53
e 51 54
e 51 69
e 52 53
e 52 54
e 52 60
e 52 70
e 52 72
e 53 54
e 53 61
e 53 71
e 53 73
e 54 62
e 54 74
e 55 56
e 55 57
e 55 58
e 55 59
e 55 60
e 55 61
e 55 62
e 55 63
e 56 57
e 56 58
e 56 59
e 56 60
e 56 61
e 56 62
e 56 64
e 57 58
e 57 59
e 57 60
e 57 61
e 57 62
e 57 67
e 58 59
e 58 60
e 58 61
e 58 62
e 59 60
e 59 61
e 59 62
e 59 68
e 60 61
e 60 62
e 60 70
e 60 72
e 61 62
e 61 71
e 61 73
e 62 74
e 63 64
e 63 65
e 63 66
e 63 67
e 63 68
e 63 69
e 63 70
e 63 71
e 64 65
e 64 66
e 64 67
e 64 68
e 64 69
e 64 70
e 64 71
e 65 66
e 65 67
e 65 68
e 65 69
e 65 70
e 65 71
e 66 67
e 66 68
e 66 69
e 66 70
e 66 71
e 67 68
e 67 69
e 67 70
e 67 71
e 68 69
e 68 70
e 68 71
e 69 70
e 69 71
e 70 71
e 70 72
e 71 73
e 72 73
e 72 74
e 73 74
